(set-logic HORN)

(declare-datatypes ((TSLL 0)) (((TSLL  (next Int) (colour Int)))))
(declare-datatypes ((HeapObject 0)) (((O_Int  (getInt Int)) (O_UInt  (getUInt Int)) (O_Addr  (getAddr Int)) (O_TSLL  (getTSLL TSLL)) (defObj ))))
(declare-datatypes ((Heap 0)) (((HeapCtor  (HeapSize Int) (HeapContents (Array Int HeapObject))))))

(declare-fun |inv_main15| ( Heap Int Int ) Bool)
(declare-fun |inv_main39| ( Heap Int Int ) Bool)
(declare-fun |inv_main10| ( Heap Int Int ) Bool)
(declare-fun |inv_main33| ( Heap Int Int ) Bool)
(declare-fun |inv_main46| ( Heap Int Int ) Bool)
(declare-fun |inv_main21| ( Heap Int Int ) Bool)
(declare-fun |inv_main12| ( Heap Int Int ) Bool)
(declare-fun |inv_main51| ( Heap Int Int ) Bool)
(declare-fun |inv_main11| ( Heap Int Int Int ) Bool)
(declare-fun |inv_main4| ( Heap Int ) Bool)
(declare-fun |inv_main52| ( Heap Int Int ) Bool)
(declare-fun |inv_main19| ( Heap Int Int ) Bool)
(declare-fun |inv_main2| ( Heap ) Bool)
(declare-fun |inv_main38| ( Heap Int Int ) Bool)
(declare-fun |inv_main23| ( Heap Int Int ) Bool)
(declare-fun |inv_main3| ( Heap Int ) Bool)
(declare-fun |inv_main56| ( Heap Int Int ) Bool)
(declare-fun |inv_main6| ( Heap Int Int ) Bool)
(declare-fun |inv_main20| ( Heap Int Int Int ) Bool)
(declare-fun |CHC_COMP_FALSE| ( ) Bool)
(declare-fun |inv_main26| ( Heap Int Int ) Bool)
(declare-fun |inv_main28| ( Heap Int Int ) Bool)
(declare-fun |inv_main37| ( Heap Int Int ) Bool)
(declare-fun |inv_main16| ( Heap Int Int ) Bool)
(declare-fun |inv_main44| ( Heap Int Int ) Bool)
(declare-fun |inv_main41| ( Heap Int Int ) Bool)
(declare-fun |inv_main53| ( Heap Int Int ) Bool)

(assert
  (forall ( (v_0 Heap) ) 
    (=>
      (and
        (and true (= v_0 (HeapCtor 0 ((as const (Array Int HeapObject)) defObj))))
      )
      (inv_main2 v_0)
    )
  )
)
(assert
  (forall ( (A Int) (B Int) (C Int) (D Heap) (E Int) (F Int) (G Heap) ) 
    (=>
      (and
        (inv_main41 G F E)
        (let ((a!1 (ite (and (not (<= E 0)) (>= (HeapSize G) E))
                (select (HeapContents G) E)
                defObj)))
  (and (= B E) (= A (next (getTSLL a!1))) (= D G) ((_ is O_TSLL) a!1) (= C F)))
      )
      (inv_main38 D C A)
    )
  )
)
(assert
  (forall ( (A Int) (B Int) (C Heap) ) 
    (=>
      (and
        (inv_main37 C B A)
        (let ((a!1 (ite (and (not (<= A 0)) (>= (HeapSize C) A))
                (select (HeapContents C) A)
                defObj)))
(let ((a!2 (not (= 0 (colour (getTSLL a!1))))))
  (and ((_ is O_TSLL) a!1) a!2)))
      )
      (inv_main38 C B A)
    )
  )
)
(assert
  (forall ( (A Int) (B Heap) (C TSLL) (D Heap) ) 
    (=>
      (and
        (inv_main2 D)
        (let ((a!1 (HeapCtor (+ 1 (HeapSize D))
                     (store (HeapContents D) (+ 1 (HeapSize D)) (O_TSLL C)))))
  (and (= B a!1) (= A (+ 1 (HeapSize D)))))
      )
      (inv_main3 B A)
    )
  )
)
(assert
  (forall ( (A Int) (B Int) (C Int) (D Heap) (E Int) (F Int) (G Heap) ) 
    (=>
      (and
        (inv_main10 G F E)
        (let ((a!1 (ite (and (not (<= E 0)) (>= (HeapSize G) E))
                (select (HeapContents G) E)
                defObj)))
  (and (= B E) (= A (next (getTSLL a!1))) (= D G) ((_ is O_TSLL) a!1) (= C F)))
      )
      (inv_main12 D C A)
    )
  )
)
(assert
  (forall ( (A Int) (B Int) (C Heap) ) 
    (=>
      (and
        (inv_main51 C B A)
        (let ((a!1 (ite (and (not (<= B 0)) (>= (HeapSize C) B))
                (select (HeapContents C) B)
                defObj)))
(let ((a!2 (not (= 0 (colour (getTSLL a!1))))))
  (and ((_ is O_TSLL) a!1) a!2)))
      )
      (inv_main53 C B A)
    )
  )
)
(assert
  (forall ( (A Int) (B Int) (C Int) (D Heap) (E Int) (F Int) (G Heap) ) 
    (=>
      (and
        (inv_main19 G F E)
        (let ((a!1 (ite (and (not (<= E 0)) (>= (HeapSize G) E))
                (select (HeapContents G) E)
                defObj)))
  (and (= B E) (= A (next (getTSLL a!1))) (= D G) ((_ is O_TSLL) a!1) (= C F)))
      )
      (inv_main21 D C A)
    )
  )
)
(assert
  (forall ( (A Int) (B Heap) (C Int) (D Int) (E Int) (F Int) (G Heap) (v_7 Int) ) 
    (=>
      (and
        (inv_main6 G F E)
        (and (= D F) (= C 0) (= A 0) (= B G) (= 0 D) (= v_7 D))
      )
      (inv_main28 B D v_7)
    )
  )
)
(assert
  (forall ( (A Int) (B Heap) (C Int) (D Int) (E Int) (F Int) (G Heap) (v_7 Int) ) 
    (=>
      (and
        (inv_main6 G F E)
        (and (= D F) (= C 0) (= A 0) (= B G) (not (= 0 D)) (= v_7 D))
      )
      (inv_main26 B D v_7)
    )
  )
)
(assert
  (forall ( (A Heap) (B Int) (C Int) (D Int) (E Heap) ) 
    (=>
      (and
        (inv_main20 E D C B)
        (let ((a!1 (ite (and (not (<= C 0)) (>= (HeapSize E) C))
                (select (HeapContents E) C)
                defObj)))
(let ((a!2 (O_TSLL (TSLL B (colour (getTSLL a!1))))))
(let ((a!3 (ite (and (not (<= C 0)) (>= (HeapSize E) C))
                (HeapCtor (HeapSize E) (store (HeapContents E) C a!2))
                E)))
  (and ((_ is O_TSLL) a!1) (= A a!3)))))
      )
      (inv_main19 A D C)
    )
  )
)
(assert
  (forall ( (A Heap) (B Int) (C Int) (D Heap) ) 
    (=>
      (and
        (inv_main21 D C B)
        (let ((a!1 (ite (and (not (<= B 0)) (>= (HeapSize D) B))
                (select (HeapContents D) B)
                defObj)))
(let ((a!2 (O_TSLL (TSLL 0 (colour (getTSLL a!1))))))
(let ((a!3 (ite (and (not (<= B 0)) (>= (HeapSize D) B))
                (HeapCtor (HeapSize D) (store (HeapContents D) B a!2))
                D)))
  (and ((_ is O_TSLL) a!1) (= A a!3)))))
      )
      (inv_main23 A C B)
    )
  )
)
(assert
  (forall ( (A Int) (B Int) (C Int) (D Heap) (E Int) (F Int) (G Heap) ) 
    (=>
      (and
        (inv_main39 G F E)
        (let ((a!1 (ite (and (not (<= E 0)) (>= (HeapSize G) E))
                (select (HeapContents G) E)
                defObj)))
  (and (= B E) (= A (next (getTSLL a!1))) (= D G) ((_ is O_TSLL) a!1) (= C F)))
      )
      (inv_main41 D C A)
    )
  )
)
(assert
  (forall ( (A Int) (B Int) (C Heap) ) 
    (=>
      (and
        (inv_main51 C B A)
        (let ((a!1 (ite (and (not (<= B 0)) (>= (HeapSize C) B))
                (select (HeapContents C) B)
                defObj)))
  (and ((_ is O_TSLL) a!1) (= 0 (colour (getTSLL a!1)))))
      )
      (inv_main52 C B A)
    )
  )
)
(assert
  (forall ( (A Int) (B Int) (C Heap) (D Int) (E Int) (F Int) (G Heap) ) 
    (=>
      (and
        (inv_main12 G F E)
        (let ((a!1 (ite (and (not (<= E 0)) (>= (HeapSize G) E))
                (select (HeapContents G) E)
                defObj)))
(let ((a!2 (O_TSLL (TSLL 0 (colour (getTSLL a!1))))))
(let ((a!3 (ite (and (not (<= E 0)) (>= (HeapSize G) E))
                (HeapCtor (HeapSize G) (store (HeapContents G) E a!2))
                G)))
  (and (= B F) (= A E) (= C a!3) ((_ is O_TSLL) a!1) (not (= D 0))))))
      )
      (inv_main15 C B A)
    )
  )
)
(assert
  (forall ( (A Int) (B Heap) (C TSLL) (D Int) (E Int) (F Heap) (G Int) (H Int) (I Heap) ) 
    (=>
      (and
        (inv_main16 I H G)
        (let ((a!1 (HeapCtor (+ 1 (HeapSize F))
                     (store (HeapContents F) (+ 1 (HeapSize F)) (O_TSLL C))))
      (a!2 (ite (and (not (<= G 0)) (>= (HeapSize I) G))
                (select (HeapContents I) G)
                defObj)))
(let ((a!3 (O_TSLL (TSLL (next (getTSLL a!2)) 0))))
(let ((a!4 (ite (and (not (<= G 0)) (>= (HeapSize I) G))
                (HeapCtor (HeapSize I) (store (HeapContents I) G a!3))
                I)))
  (and (= E H)
       (= D G)
       (= B a!1)
       (= F a!4)
       ((_ is O_TSLL) a!2)
       (= A (+ 1 (HeapSize F)))))))
      )
      (inv_main20 B E D A)
    )
  )
)
(assert
  (forall ( (A Int) (B Heap) (C Int) (D Int) (E Int) (F Heap) (G Int) (H Int) (I Int) (J Heap) ) 
    (=>
      (and
        (inv_main56 J I H)
        (let ((a!1 (ite (and (not (<= H 0)) (>= (HeapSize J) H))
                (select (HeapContents J) H)
                defObj))
      (a!2 (ite (and (not (<= D 0)) (>= (HeapSize F) D))
                (HeapCtor (HeapSize F) (store (HeapContents F) D defObj))
                F)))
  (and (= C (next (getTSLL a!1)))
       (= A D)
       (= G C)
       (= E I)
       (= D H)
       (= B a!2)
       (= F J)
       ((_ is O_TSLL) a!1)
       (not (= 0 G))))
      )
      (inv_main51 B G A)
    )
  )
)
(assert
  (forall ( (A Int) (B Heap) (C Int) (D Int) (E Int) (F Heap) (G Int) (H Int) (I Int) (J Heap) (v_10 Int) ) 
    (=>
      (and
        (inv_main53 J I H)
        (let ((a!1 (ite (and (not (<= I 0)) (>= (HeapSize J) I))
                (select (HeapContents J) I)
                defObj))
      (a!2 (ite (and (not (<= E 0)) (>= (HeapSize F) E))
                (HeapCtor (HeapSize F) (store (HeapContents F) E defObj))
                F)))
  (and (= C (next (getTSLL a!1)))
       (= A E)
       (= G C)
       (= E I)
       (= D H)
       (= B a!2)
       (= F J)
       ((_ is O_TSLL) a!1)
       (not (= 0 G))
       (= v_10 G)))
      )
      (inv_main51 B G v_10)
    )
  )
)
(assert
  (forall ( (A Int) (B Heap) (C Int) (D Int) (E Int) (F Int) (G Heap) ) 
    (=>
      (and
        (inv_main44 G F E)
        (let ((a!1 (ite (and (not (<= E 0)) (>= (HeapSize G) E))
                (select (HeapContents G) E)
                defObj)))
  (and (= 0 C)
       (= D F)
       (= C (next (getTSLL a!1)))
       (= A E)
       (= B G)
       ((_ is O_TSLL) a!1)
       (not (= 0 D))))
      )
      (inv_main51 B D C)
    )
  )
)
(assert
  (forall ( (A Int) (B Int) (C Heap) ) 
    (=>
      (and
        (inv_main26 C B A)
        (let ((a!1 (ite (and (not (<= A 0)) (>= (HeapSize C) A))
                (select (HeapContents C) A)
                defObj)))
  (and (= 0 A) (not (= 0 B)) ((_ is O_TSLL) a!1) (= 1 (colour (getTSLL a!1)))))
      )
      (inv_main51 C B A)
    )
  )
)
(assert
  (forall ( (A Heap) (B Int) (C Int) (D Int) (E Heap) (F Int) (G Int) (H Heap) ) 
    (=>
      (and
        (inv_main52 H G F)
        (let ((a!1 (ite (and (not (<= G 0)) (>= (HeapSize H) G))
                (select (HeapContents H) G)
                defObj))
      (a!2 (ite (and (not (<= D 0)) (>= (HeapSize E) D))
                (HeapCtor (HeapSize E) (store (HeapContents E) D defObj))
                E)))
  (and (= C F)
       (= B (next (getTSLL a!1)))
       (= A a!2)
       (= E H)
       ((_ is O_TSLL) a!1)
       (= D G)))
      )
      (inv_main56 A D B)
    )
  )
)
(assert
  (forall ( (A Int) (B Heap) (C TSLL) (D Int) (E Int) (F Int) (G Heap) ) 
    (=>
      (and
        (inv_main6 G F E)
        (let ((a!1 (HeapCtor (+ 1 (HeapSize G))
                     (store (HeapContents G) (+ 1 (HeapSize G)) (O_TSLL C)))))
  (and (= A (+ 1 (HeapSize G))) (= B a!1) (not (= D 0))))
      )
      (inv_main11 B F E A)
    )
  )
)
(assert
  (forall ( (A Int) (B Int) (C Heap) ) 
    (=>
      (and
        (inv_main26 C B A)
        (let ((a!1 (ite (and (not (<= A 0)) (>= (HeapSize C) A))
                (select (HeapContents C) A)
                defObj)))
(let ((a!2 (not (= 1 (colour (getTSLL a!1))))))
  (and ((_ is O_TSLL) a!1) a!2)))
      )
      (inv_main33 C B A)
    )
  )
)
(assert
  (forall ( (A Int) (B Int) (C Heap) ) 
    (=>
      (and
        (inv_main37 C B A)
        (let ((a!1 (ite (and (not (<= A 0)) (>= (HeapSize C) A))
                (select (HeapContents C) A)
                defObj)))
  (and ((_ is O_TSLL) a!1) (= 0 (colour (getTSLL a!1)))))
      )
      (inv_main39 C B A)
    )
  )
)
(assert
  (forall ( (A Int) (B Int) (C Heap) ) 
    (=>
      (and
        (inv_main38 C B A)
        (let ((a!1 (ite (and (not (<= A 0)) (>= (HeapSize C) A))
                (select (HeapContents C) A)
                defObj)))
(let ((a!2 (not (= (next (getTSLL a!1)) 0))))
  (and ((_ is O_TSLL) a!1) a!2)))
      )
      (inv_main44 C B A)
    )
  )
)
(assert
  (forall ( (A Heap) (B Int) (C Int) (D Heap) ) 
    (=>
      (and
        (inv_main15 D C B)
        (let ((a!1 (ite (and (not (<= B 0)) (>= (HeapSize D) B))
                (select (HeapContents D) B)
                defObj)))
(let ((a!2 (O_TSLL (TSLL (next (getTSLL a!1)) 1))))
(let ((a!3 (ite (and (not (<= B 0)) (>= (HeapSize D) B))
                (HeapCtor (HeapSize D) (store (HeapContents D) B a!2))
                D)))
  (and ((_ is O_TSLL) a!1) (= A a!3)))))
      )
      (inv_main6 A C B)
    )
  )
)
(assert
  (forall ( (A Heap) (B Int) (C Int) (D Heap) ) 
    (=>
      (and
        (inv_main23 D C B)
        (let ((a!1 (ite (and (not (<= B 0)) (>= (HeapSize D) B))
                (select (HeapContents D) B)
                defObj)))
(let ((a!2 (O_TSLL (TSLL (next (getTSLL a!1)) 1))))
(let ((a!3 (ite (and (not (<= B 0)) (>= (HeapSize D) B))
                (HeapCtor (HeapSize D) (store (HeapContents D) B a!2))
                D)))
  (and ((_ is O_TSLL) a!1) (= A a!3)))))
      )
      (inv_main6 A C B)
    )
  )
)
(assert
  (forall ( (A Int) (B Heap) (C Int) (D Heap) (v_4 Int) ) 
    (=>
      (and
        (inv_main4 D C)
        (let ((a!1 (ite (and (not (<= C 0)) (>= (HeapSize D) C))
                (select (HeapContents D) C)
                defObj)))
(let ((a!2 (O_TSLL (TSLL (next (getTSLL a!1)) 1))))
(let ((a!3 (ite (and (not (<= C 0)) (>= (HeapSize D) C))
                (HeapCtor (HeapSize D) (store (HeapContents D) C a!2))
                D)))
  (and (= B a!3) ((_ is O_TSLL) a!1) (= A C) (= v_4 A)))))
      )
      (inv_main6 B A v_4)
    )
  )
)
(assert
  (forall ( (A Heap) (B Int) (C Int) (D Int) (E Heap) ) 
    (=>
      (and
        (inv_main11 E D C B)
        (let ((a!1 (ite (and (not (<= C 0)) (>= (HeapSize E) C))
                (select (HeapContents E) C)
                defObj)))
(let ((a!2 (O_TSLL (TSLL B (colour (getTSLL a!1))))))
(let ((a!3 (ite (and (not (<= C 0)) (>= (HeapSize E) C))
                (HeapCtor (HeapSize E) (store (HeapContents E) C a!2))
                E)))
  (and ((_ is O_TSLL) a!1) (= A a!3)))))
      )
      (inv_main10 A D C)
    )
  )
)
(assert
  (forall ( (A Heap) (B Int) (C Heap) ) 
    (=>
      (and
        (inv_main3 C B)
        (let ((a!1 (ite (and (not (<= B 0)) (>= (HeapSize C) B))
                (select (HeapContents C) B)
                defObj)))
(let ((a!2 (O_TSLL (TSLL 0 (colour (getTSLL a!1))))))
(let ((a!3 (ite (and (not (<= B 0)) (>= (HeapSize C) B))
                (HeapCtor (HeapSize C) (store (HeapContents C) B a!2))
                C)))
  (and ((_ is O_TSLL) a!1) (= A a!3)))))
      )
      (inv_main4 A B)
    )
  )
)
(assert
  (forall ( (A Int) (B Int) (C Heap) ) 
    (=>
      (and
        (inv_main38 C B A)
        (let ((a!1 (ite (and (not (<= A 0)) (>= (HeapSize C) A))
                (select (HeapContents C) A)
                defObj)))
  (and ((_ is O_TSLL) a!1) (= (next (getTSLL a!1)) 0)))
      )
      (inv_main46 C B A)
    )
  )
)
(assert
  (forall ( (A Int) (B Int) (C Heap) (D Int) (E Int) (F Int) (G Heap) ) 
    (=>
      (and
        (inv_main44 G F E)
        (let ((a!1 (ite (and (not (<= E 0)) (>= (HeapSize G) E))
                (select (HeapContents G) E)
                defObj)))
  (and (= D (next (getTSLL a!1)))
       (= B F)
       (= A E)
       (= C G)
       ((_ is O_TSLL) a!1)
       (not (= 0 D))))
      )
      (inv_main37 C B D)
    )
  )
)
(assert
  (forall ( (A Int) (B Int) (C Heap) ) 
    (=>
      (and
        (inv_main26 C B A)
        (let ((a!1 (ite (and (not (<= A 0)) (>= (HeapSize C) A))
                (select (HeapContents C) A)
                defObj)))
  (and (not (= 0 A)) ((_ is O_TSLL) a!1) (= 1 (colour (getTSLL a!1)))))
      )
      (inv_main37 C B A)
    )
  )
)
(assert
  (forall ( (A Int) (B Int) (C Heap) (D Int) (E Int) (F Int) (G Heap) ) 
    (=>
      (and
        (inv_main12 G F E)
        (let ((a!1 (ite (and (not (<= E 0)) (>= (HeapSize G) E))
                (select (HeapContents G) E)
                defObj)))
(let ((a!2 (O_TSLL (TSLL 0 (colour (getTSLL a!1))))))
(let ((a!3 (ite (and (not (<= E 0)) (>= (HeapSize G) E))
                (HeapCtor (HeapSize G) (store (HeapContents G) E a!2))
                G)))
  (and (= B F) (= A E) (= C a!3) ((_ is O_TSLL) a!1) (= D 0)))))
      )
      (inv_main16 C B A)
    )
  )
)
(assert
  (forall ( (A Int) (B Heap) ) 
    (=>
      (and
        (inv_main3 B A)
        (let ((a!1 (ite (and (not (<= A 0)) (>= (HeapSize B) A))
                (select (HeapContents B) A)
                defObj)))
  (not ((_ is O_TSLL) a!1)))
      )
      CHC_COMP_FALSE
    )
  )
)
(assert
  (forall ( (A Int) (B Heap) ) 
    (=>
      (and
        (inv_main4 B A)
        (let ((a!1 (ite (and (not (<= A 0)) (>= (HeapSize B) A))
                (select (HeapContents B) A)
                defObj)))
  (not ((_ is O_TSLL) a!1)))
      )
      CHC_COMP_FALSE
    )
  )
)
(assert
  (forall ( (A Int) (B Int) (C Int) (D Heap) ) 
    (=>
      (and
        (inv_main11 D C B A)
        (let ((a!1 (ite (and (not (<= B 0)) (>= (HeapSize D) B))
                (select (HeapContents D) B)
                defObj)))
  (not ((_ is O_TSLL) a!1)))
      )
      CHC_COMP_FALSE
    )
  )
)
(assert
  (forall ( (A Int) (B Int) (C Heap) ) 
    (=>
      (and
        (inv_main10 C B A)
        (let ((a!1 (ite (and (not (<= A 0)) (>= (HeapSize C) A))
                (select (HeapContents C) A)
                defObj)))
  (not ((_ is O_TSLL) a!1)))
      )
      CHC_COMP_FALSE
    )
  )
)
(assert
  (forall ( (A Int) (B Int) (C Heap) ) 
    (=>
      (and
        (inv_main12 C B A)
        (let ((a!1 (ite (and (not (<= A 0)) (>= (HeapSize C) A))
                (select (HeapContents C) A)
                defObj)))
  (not ((_ is O_TSLL) a!1)))
      )
      CHC_COMP_FALSE
    )
  )
)
(assert
  (forall ( (A Int) (B Int) (C Heap) ) 
    (=>
      (and
        (inv_main15 C B A)
        (let ((a!1 (ite (and (not (<= A 0)) (>= (HeapSize C) A))
                (select (HeapContents C) A)
                defObj)))
  (not ((_ is O_TSLL) a!1)))
      )
      CHC_COMP_FALSE
    )
  )
)
(assert
  (forall ( (A Int) (B Int) (C Heap) ) 
    (=>
      (and
        (inv_main16 C B A)
        (let ((a!1 (ite (and (not (<= A 0)) (>= (HeapSize C) A))
                (select (HeapContents C) A)
                defObj)))
  (not ((_ is O_TSLL) a!1)))
      )
      CHC_COMP_FALSE
    )
  )
)
(assert
  (forall ( (A Int) (B Int) (C Int) (D Heap) ) 
    (=>
      (and
        (inv_main20 D C B A)
        (let ((a!1 (ite (and (not (<= B 0)) (>= (HeapSize D) B))
                (select (HeapContents D) B)
                defObj)))
  (not ((_ is O_TSLL) a!1)))
      )
      CHC_COMP_FALSE
    )
  )
)
(assert
  (forall ( (A Int) (B Int) (C Heap) ) 
    (=>
      (and
        (inv_main19 C B A)
        (let ((a!1 (ite (and (not (<= A 0)) (>= (HeapSize C) A))
                (select (HeapContents C) A)
                defObj)))
  (not ((_ is O_TSLL) a!1)))
      )
      CHC_COMP_FALSE
    )
  )
)
(assert
  (forall ( (A Int) (B Int) (C Heap) ) 
    (=>
      (and
        (inv_main21 C B A)
        (let ((a!1 (ite (and (not (<= A 0)) (>= (HeapSize C) A))
                (select (HeapContents C) A)
                defObj)))
  (not ((_ is O_TSLL) a!1)))
      )
      CHC_COMP_FALSE
    )
  )
)
(assert
  (forall ( (A Int) (B Int) (C Heap) ) 
    (=>
      (and
        (inv_main23 C B A)
        (let ((a!1 (ite (and (not (<= A 0)) (>= (HeapSize C) A))
                (select (HeapContents C) A)
                defObj)))
  (not ((_ is O_TSLL) a!1)))
      )
      CHC_COMP_FALSE
    )
  )
)
(assert
  (forall ( (A Int) (B Int) (C Heap) ) 
    (=>
      (and
        (inv_main28 C B A)
        true
      )
      CHC_COMP_FALSE
    )
  )
)
(assert
  (forall ( (A Int) (B Int) (C Heap) ) 
    (=>
      (and
        (inv_main26 C B A)
        (let ((a!1 (ite (and (not (<= A 0)) (>= (HeapSize C) A))
                (select (HeapContents C) A)
                defObj)))
  (not ((_ is O_TSLL) a!1)))
      )
      CHC_COMP_FALSE
    )
  )
)
(assert
  (forall ( (A Int) (B Int) (C Heap) ) 
    (=>
      (and
        (inv_main33 C B A)
        true
      )
      CHC_COMP_FALSE
    )
  )
)
(assert
  (forall ( (A Int) (B Int) (C Heap) ) 
    (=>
      (and
        (inv_main37 C B A)
        (let ((a!1 (ite (and (not (<= A 0)) (>= (HeapSize C) A))
                (select (HeapContents C) A)
                defObj)))
  (not ((_ is O_TSLL) a!1)))
      )
      CHC_COMP_FALSE
    )
  )
)
(assert
  (forall ( (A Int) (B Int) (C Heap) ) 
    (=>
      (and
        (inv_main39 C B A)
        (let ((a!1 (ite (and (not (<= A 0)) (>= (HeapSize C) A))
                (select (HeapContents C) A)
                defObj)))
  (not ((_ is O_TSLL) a!1)))
      )
      CHC_COMP_FALSE
    )
  )
)
(assert
  (forall ( (A Int) (B Int) (C Heap) ) 
    (=>
      (and
        (inv_main41 C B A)
        (let ((a!1 (ite (and (not (<= A 0)) (>= (HeapSize C) A))
                (select (HeapContents C) A)
                defObj)))
  (not ((_ is O_TSLL) a!1)))
      )
      CHC_COMP_FALSE
    )
  )
)
(assert
  (forall ( (A Int) (B Int) (C Heap) ) 
    (=>
      (and
        (inv_main38 C B A)
        (let ((a!1 (ite (and (not (<= A 0)) (>= (HeapSize C) A))
                (select (HeapContents C) A)
                defObj)))
  (not ((_ is O_TSLL) a!1)))
      )
      CHC_COMP_FALSE
    )
  )
)
(assert
  (forall ( (A Int) (B Int) (C Heap) ) 
    (=>
      (and
        (inv_main46 C B A)
        true
      )
      CHC_COMP_FALSE
    )
  )
)
(assert
  (forall ( (A Int) (B Int) (C Heap) ) 
    (=>
      (and
        (inv_main44 C B A)
        (let ((a!1 (ite (and (not (<= A 0)) (>= (HeapSize C) A))
                (select (HeapContents C) A)
                defObj)))
  (not ((_ is O_TSLL) a!1)))
      )
      CHC_COMP_FALSE
    )
  )
)
(assert
  (forall ( (A Int) (B Int) (C Heap) ) 
    (=>
      (and
        (inv_main51 C B A)
        (let ((a!1 (ite (and (not (<= B 0)) (>= (HeapSize C) B))
                (select (HeapContents C) B)
                defObj)))
  (not ((_ is O_TSLL) a!1)))
      )
      CHC_COMP_FALSE
    )
  )
)
(assert
  (forall ( (A Int) (B Int) (C Heap) ) 
    (=>
      (and
        (inv_main52 C B A)
        (let ((a!1 (ite (and (not (<= B 0)) (>= (HeapSize C) B))
                (select (HeapContents C) B)
                defObj)))
  (not ((_ is O_TSLL) a!1)))
      )
      CHC_COMP_FALSE
    )
  )
)
(assert
  (forall ( (A Int) (B Int) (C Heap) ) 
    (=>
      (and
        (inv_main56 C B A)
        (let ((a!1 (ite (and (not (<= A 0)) (>= (HeapSize C) A))
                (select (HeapContents C) A)
                defObj)))
  (not ((_ is O_TSLL) a!1)))
      )
      CHC_COMP_FALSE
    )
  )
)
(assert
  (forall ( (A Int) (B Int) (C Heap) ) 
    (=>
      (and
        (inv_main53 C B A)
        (let ((a!1 (ite (and (not (<= B 0)) (>= (HeapSize C) B))
                (select (HeapContents C) B)
                defObj)))
  (not ((_ is O_TSLL) a!1)))
      )
      CHC_COMP_FALSE
    )
  )
)
(assert
  (forall ( (CHC_COMP_UNUSED Bool) ) 
    (=>
      (and
        CHC_COMP_FALSE
      )
      false
    )
  )
)

(check-sat)
(exit)
